32      6       
8       10      10      10      8       6
0       0       0       0       0       0       0       4       2       3       4       5       
4       0       0       0       5       2       0       1       10      
2       5       0       0       0       2       0       1       6       
3       0       0       0       5       0       3       1       8       
8       6       0       0       0       0       2       1       11      
10      0       0       2       0       2	0	1       7       
9       0       0       8       0       3	0  	1       14      
3       0       6       0       0       0	1	1       9       
8       0       0       7       0       1	0	1       12      
2       0       7       0       0       0	2	1       18      
7       0       0       10      0       2	0	1       16      
6       8       0       0       0       0	1	1       13      
6       5       0       0       0       0	1	1       15      
7       0       10      0       0       2	0	1       17      
10      0       0       7       0       0	1       1       26      
5       3       0       0       0       2	0	1       19      
3       5       0       0       0       4	0 	1       18      
8       2       0       0       0       0	2	1       22      
1       0       0       3       0       4	0 	1       20      
3       0       1       0       0       2	0  	1       21      
2       0       0       0       3       3	0  	1       23      
7       0       0       6       0       5	0 	1       30      
5       0       0       0       2       6	0 	1       24      
10      0       0       0       3       0	2 	1       25      
7       7       0       0       0       1	0 	1       28      
2       0       0       9       0       1	0 	1       27      
1       3       0       0       0       0	5 	1       28      
8       4       0       0       0       0	3 	1       29      
4       0       0       0       2       2	0	1       31      
3       5       0       0       0       0	1 	1       32      
6       0       0       0       2       2	0 	1       32      
0       0       0       0       0       0	0       0
